22511
1 0 1 1 1 0 1 1 1 0 1 1 1 0 1 1 0 0 1 0 1 1 1 1 1 1 1 1 1 1 
18 6 21 27 2 12 15 27 22 28 4 28 10 3 28 18 3 20 22 0 18 21 23 24 10 18 27 14 29 2 6 26 4 21 27 6 20 8 24 15 18 8 6 4 8 26 3 21 14 14 24 24 24 21 8 6 11 8 18 25 29 0 7 8 3 11 23 14 28 25 18 12 6 8 23 23 20 23 8 24 10 0 26 25 29 10 6 2 27 7 28 6 25 25 2 3 11 6 0 28 28 15 25 18 4 0 4 24 22 3 14 4 27 12 12 8 28 7 14 8 26 11 28 6 26 21 2 11 26 0 28 24 25 20 23 8 3 3 28 10 12 22 11 11 25 2 24 15 27 25 24 0 23 0 8 11 2 15 3 3 3 27 10 24 23 27 23 4 3 21 23 20 28 14 26 2 0 10 29 10 2 21 2 6 12 8 28 23 0 21 2 21 6 4 7 12 7 15 10 6 
